Version identifier: 20.1.0.0 | 2020-11-10 | 9bedb6d68
CPXPARAM_Threads                                 1
CPXPARAM_TimeLimit                               7200
CPXPARAM_MIP_Tolerances_MIPGap                   0
Generic callback                                 0x60
1 of 1 MIP starts provided solutions.
MIP start 'm1' defined initial solution with objective 1344.5895.
Tried aggregator 1 time.
Reduced MIP has 1 rows, 1001 columns, and 1000 nonzeros.
Reduced MIP has 1000 binaries, 0 generals, 0 SOSs, and 0 indicators.
Presolve time = 0.00 sec. (0.30 ticks)
Probing time = 0.00 sec. (0.11 ticks)
Tried aggregator 1 time.
Reduced MIP has 1 rows, 1001 columns, and 1000 nonzeros.
Reduced MIP has 1000 binaries, 0 generals, 0 SOSs, and 0 indicators.
Presolve time = 0.00 sec. (0.31 ticks)
Probing time = 0.00 sec. (0.11 ticks)
MIP emphasis: balance optimality and feasibility.
MIP search method: dynamic search.
Parallel mode: none, using 1 thread.
Root relaxation solution time = 0.00 sec. (0.21 ticks)

        Nodes                                         Cuts/
   Node  Left     Objective  IInf  Best Integer    Best Bound    ItCnt     Gap

*     0+    0                         1344.5895     2716.0000           101.99%
      0     0     1596.9351     2     1344.5895     2716.0000        0  101.99%
      0     0     1487.0863     4     1344.5895 UserPurge2: 1        8   10.60%
      0     0     1467.6032     4     1344.5895 UserPurge2: 1       20    9.15%
      0     0     1422.5547     3     1344.5895 UserPurge2: 1       33    5.80%
*     0+    0                         1349.8692     1422.5547             5.38%

Repeating presolve.
Tried aggregator 1 time.
MIP Presolve eliminated 0 rows and 293 columns.
Reduced MIP has 1 rows, 708 columns, and 707 nonzeros.
Reduced MIP has 707 binaries, 0 generals, 0 SOSs, and 0 indicators.
Presolve time = 0.00 sec. (0.27 ticks)
Probing time = 0.00 sec. (0.08 ticks)
Tried aggregator 1 time.
Reduced MIP has 1 rows, 708 columns, and 707 nonzeros.
Reduced MIP has 707 binaries, 0 generals, 0 SOSs, and 0 indicators.
Presolve time = 0.00 sec. (0.22 ticks)
Represolve time = 0.00 sec. (1.70 ticks)
Probing time = 0.00 sec. (0.08 ticks)
MIP emphasis: balance optimality and feasibility.
MIP search method: dynamic search.
Parallel mode: none, using 1 thread.
Root relaxation solution time = 0.00 sec. (1.25 ticks)

        Nodes                                         Cuts/
   Node  Left     Objective  IInf  Best Integer    Best Bound    ItCnt     Gap

*     0+    0                         1349.8692     1422.5547             5.38%
      0     0     1422.1303     4     1349.8692     1422.1303       62    5.35%
      0     0     1421.3648     4     1349.8692 UserPurge2: 1       67    5.30%
      0     0     1394.1972     4     1349.8692 UserPurge2: 1       83    3.28%
      0     0     1392.1406     5     1349.8692 UserPurge2: 1       88    3.13%
      0     0     1379.6125     4     1349.8692 UserPurge2: 1       99    2.20%
      0     0     1376.8801     4     1349.8692 UserPurge2: 1      105    2.00%
*     0+    0                         1358.0000     1376.8801             1.39%
      0     0     1374.5436     5     1358.0000 UserPurge2: 1      109    1.22%
      0     0     1373.1574     6     1358.0000 UserPurge2: 1      116    1.12%
      0     2     1373.1574     6     1358.0000     1373.1375      116    1.11%
Elapsed time = 11.42 sec. (25.16 ticks, tree = 0.01 MB, solutions = 3)

User cuts applied:  27

Root node processing (before b&c):
  Real time             =   11.42 sec. (25.24 ticks)
Sequential b&c:
  Real time             =    1.81 sec. (10.42 ticks)
                          ------------
Total (root+branch&cut) =   13.22 sec. (35.67 ticks)
@Parameters: 
is_S_cut                                true
is_add_all_yinF                         true
is_start_value                          true
is_usercut                              true
is_visualization                        false
uc_only_rootnode                        false

data                                    Qi
fn                                      data/Qi/instance_500_1000.csv
mode                                    NewSubmodular
solver                                  cplex

p                                       2
r                                       2

EPS                                     1.0e-06
EPS_vio                                 1.0e-04
beta                                    0.10
gap                                     0.00
nodelimit                               Inf
timelimit                               7200.00


@PrintInfos
ItCnt: 322
Current gap: 0.00 %
Termination Status: OPTIMAL
Primal Status: FEASIBLE_POINT
Solve Time: 13.22 sec
Objective Value: 1358.000000
Number of Nodes:      3

CutInfo: [phase] num / time (sec) 
ZLP             [phase1]     0 / 0.00 [rLC]     0 / 0.00 [rUC]     0 / 0.00 [sLC]     0 / 0.00 [sUC]     0 / 0.00 
OldSubmodular   [phase1]     0 / 0.00 [rLC]     0 / 0.00 [rUC]     0 / 0.00 [sLC]     0 / 0.00 [sUC]     0 / 0.00 
NewSubmodular   [phase1]     0 / 0.00 [rLC]    13 / 8.35 [rUC]    12 / 1.06 [sLC]     0 / 0.00 [sUC]    20 / 1.79 
PMP             [phase1]     0 / 0.00 [rLC]     4 / 6.15 [rUC]     0 / 0.00 [sLC]     0 / 0.00 [sUC]     0 / 0.00 
Separation Round: [phase1] 0  [rLC] 16  [rUC] 12  [sLC] 0  [sUC] 20
Root Best Bound 1358.000000
Root Best Integer: 1358.000000
Best Bound: 1358.000000
Best Integer: 1358.000000

